g3 0 1 0	# problem I2
 8 0 3 0 0	# vars, constraints, objectives, ranges, eqns
 0 3	# nonlinear constraints, objectives
 0 0	# network constraints: nonlinear, linear
 0 8 0	# nonlinear vars in constraints, objectives, both
 0 0 0 1	# linear network variables; functions; arith, flags
 0 0 0 0 0	# discrete variables: binary, integer, nonlinear (b,c,o)
 0 24	# nonzeros in Jacobian, gradients
 0 0	# max name lengths: constraints, variables
 0 0 37 0 3	# common exprs: b,c,o,c1,o1
V8 1 0
0 1
n0
V9 1 0
1 1
n0
V10 1 0
2 1
n0
V11 1 0
3 1
n0
V12 1 0
4 1
n0
V13 1 0
5 1
n0
V14 1 0
6 1
n0
V15 1 0
7 1
n0
V16 0 0
o54
7
o2
n0.14285714285714285
v15
o2
n0.14285714285714285
v14
o2
n0.14285714285714285
v13
o2
n0.14285714285714285
v12
o2
n0.14285714285714285
v11
o2
n0.14285714285714285
v10
o2
n0.14285714285714285
v9
V17 0 0
o54
6
o2
n0.16666666666666666
v15
o2
n0.16666666666666666
v14
o2
n0.16666666666666666
v13
o2
n0.16666666666666666
v12
o2
n0.16666666666666666
v11
o2
n0.16666666666666666
v10
V18 0 0
o54
5
o2
n0.2
v15
o2
n0.2
v14
o2
n0.2
v13
o2
n0.2
v12
o2
n0.2
v11
V19 0 0
o54
4
o2
n0.25
v15
o2
n0.25
v14
o2
n0.25
v13
o2
n0.25
v12
V20 0 0
o54
3
o2
n0.3333333333333333
v15
o2
n0.3333333333333333
v14
o2
n0.3333333333333333
v13
V21 0 0
o0
o2
n0.5
v15
o2
n0.5
v14
V22 0 0
v15
V23 0 0
o5
v8
o0
n0.02
o2
n49.98
o1
n0.0196078431372549
o2
o0
n1
o2
n-2
v16
o15
o0
n0.0196078431372549
o13
o1
n0.5
v16
V24 0 0
o5
v9
o0
n0.02
o2
n49.98
o1
n0.0196078431372549
o2
o0
n1
o2
n-2
v17
o15
o0
n0.0196078431372549
o13
o1
n0.5
v17
V25 0 0
o5
v10
o0
n0.02
o2
n49.98
o1
n0.0196078431372549
o2
o0
n1
o2
n-2
v18
o15
o0
n0.0196078431372549
o13
o1
n0.5
v18
V26 0 0
o5
v11
o0
n0.02
o2
n49.98
o1
n0.0196078431372549
o2
o0
n1
o2
n-2
v19
o15
o0
n0.0196078431372549
o13
o1
n0.5
v19
V27 0 0
o5
v12
o0
n0.02
o2
n49.98
o1
n0.0196078431372549
o2
o0
n1
o2
n-2
v20
o15
o0
n0.0196078431372549
o13
o1
n0.5
v20
V28 0 0
o5
v13
o0
n0.02
o2
n49.98
o1
n0.0196078431372549
o2
o0
n1
o2
n-2
v21
o15
o0
n0.0196078431372549
o13
o1
n0.5
v21
V29 0 0
o5
v14
o0
n0.02
o2
n49.98
o1
n0.0196078431372549
o2
o0
n1
o2
n-2
v22
o15
o0
n0.0196078431372549
o13
o1
n0.5
v22
V30 0 0
v15
V31 0 0
v23
V32 0 0
v24
V33 0 0
v25
V34 0 0
v26
V35 0 0
o3
o15
o1
v27
n0.35
o15
o0
n0.35
o13
o1
n0.35
v27
V36 0 0
o3
o15
o1
v28
n0.35
o15
o0
n0.35
o13
o1
n0.35
v28
V37 0 0
o3
o15
o1
v29
n0.35
o15
o0
n0.35
o13
o1
n0.35
v29
V38 0 0
o3
o15
o1
v30
n0.35
o15
o0
n0.35
o13
o1
n0.35
v30
V39 0 0
o0
o2
n0.5
v32
o2
n0.5
v31
V40 0 0
o0
o2
n0.5
v34
o2
n0.5
v33
V41 0 0
o54
4
o2
n0.25
v38
o2
n0.25
v37
o2
n0.25
v36
o2
n0.25
v35
V42 0 0
o0
o2
o12
2
n1
v41
o1
v39
n0.5
n0.5
V43 0 0
o0
o2
o12
2
n1
v41
o1
v40
n0.5
n0.5
V44 0 0
v41
V45 0 1
o2
o41
o2
n1.5707963267948966
v42
o41
o2
n1.5707963267948966
v43
O0 0
o0
v45
v44
V46 0 2
o2
o41
o2
n1.5707963267948966
v42
o46
o2
n1.5707963267948966
v43
O1 0
o0
v46
v44
V47 0 3
o46
o2
n1.5707963267948966
v42
O2 0
o0
v47
v44
b
0 0 1
0 0 1
0 0 1
0 0 1
0 0 1
0 0 1
0 0 1
0 0 1
k7
0
0
0
0
0
0
0
G0 8
0 0
1 0
2 0
3 0
4 0
5 0
6 0
7 0
G1 8
0 0
1 0
2 0
3 0
4 0
5 0
6 0
7 0
G2 8
0 0
1 0
2 0
3 0
4 0
5 0
6 0
7 0
